100
100
39 3
48 5
49 6
32 3
42 5
26 3
28 3
39 4
28 3
28 3
27 3
40 5
46 5
25 3
26 2
28 3
40 5
27 3
31 4
25 3
42 5
38 5
29 3
28 3
40 5
35 3
31 4
29 4
38 4
38 4
44 5
39 5
42 4
33 3
29 4
28 3
44 5
47 5
33 4
43 5
27 3
31 4
46 5
33 4
38 4
29 4
40 4
45 5
48 7
38 4
37 5
30 3
33 4
29 3
44 5
37 5
25 3
34 3
39 4
34 3
45 5
27 3
49 7
29 4
49 6
41 4
26 3
46 5
39 5
26 2
44 5
36 4
27 2
48 6
41 5
43 5
34 4
27 4
30 4
35 5
25 2
29 4
37 4
44 5
39 5
40 4
26 2
33 3
37 4
33 4
44 5
38 5
25 3
48 5
30 4
41 4
38 5
39 4
39 4
39 5
